Route #1: 26 64 6 46 55 56 59 13 14 22 29 10 49
Route #2: 39 36 25 47 2 45 37 61 58 31 63 62 4
Route #3: 60 44 3 30 28 48 5 18 41 40 51 21 50 7 43 65 54 35
Route #4: 32 66 67 17 8 12 15 20
Route #5: 23 53 16 57
Route #6: 1 27 38 24 33 9
Route #7: 34 11 42 52 19
Route #8: 
Route #9: 
Route #10: 
cost 1831.1011919339103
